Academic license - for non-commercial use only - expires 2021-07-19
Using license file /prj/tools/gurobi911/gurobi.lic
Set parameter LogFile to value gurobi.log

Gurobi Optimizer version 9.1.1 build v9.1.1rc0 (linux64)
Copyright (c) 2020, Gurobi Optimization, LLC

Read LP format model from file Example1.ilp
Reading time = 0.00 seconds
: 409 rows, 220 columns, 1169 nonzeros
Thread count: 28 physical cores, 28 logical processors, using up to 28 threads
Optimize a model with 409 rows, 220 columns and 1169 nonzeros
Model fingerprint: 0xf9c71fb2
Variable types: 0 continuous, 220 integer (185 binary)
Coefficient statistics:
  Matrix range     [1e+00, 3e+01]
  Objective range  [2e-01, 5e-01]
  Bounds range     [1e+00, 3e+01]
  RHS range        [1e+00, 3e+01]
Presolve removed 356 rows and 190 columns
Presolve time: 0.00s
Presolved: 53 rows, 30 columns, 170 nonzeros
Variable types: 0 continuous, 30 integer (26 binary)
Found heuristic solution: objective 2.5000000
Found heuristic solution: objective 3.0000000

Root relaxation: cutoff, 0 iterations, 0.00 seconds

Explored 0 nodes (0 simplex iterations) in 0.00 seconds
Thread count was 28 (of 28 available processors)

Solution count 2: 3 2.5 

Optimal solution found (tolerance 1.00e-04)
Best objective 3.000000000000e+00, best bound 3.000000000000e+00, gap 0.0000%

Wrote result file 'Example.sol'

